p cnf 660 1661
4  -1  -2  0
7  -4  -5  0
10  -7  8  0
13  -10  -11  0
-16  -13  14  0
19  -16  17  0
22  -19  20  0
25  -22  -23  0
28  25  -26  0
31  -28  -29  0
-34  31  32  0
-37  34  35  0
-40  -37  -38  0
43  -40  41  0
46  43  44  0
49  46  -47  0
52  -49  -50  0
-55  52  53  0
-58  -55  -56  0
61  58  59  0
-64  -61  62  0
-67  64  65  0
-70  -67  68  0
73  70  -71  0
76  -73  -74  0
79  76  -77  0
-82  79  -80  0
85  82  -83  0
88  -85  86  0
-94  91  92  0
97  -94  -95  0
100  -97  98  0
103  100  -101  0
106  103  -104  0
112  -109  -110  0
-115  112  -113  0
-118  115  -116  0
-121  -118  119  0
-127  -124  -125  0
-130  -127  128  0
-133  130  131  0
136  -133  -134  0
139  136  -137  0
142  -139  -140  0
-145  -142  143  0
-148  145  146  0
151  148  149  0
-154  -151  -152  0
157  154  155  0
160  -157  158  0
163  160  161  0
-166  -163  -164  0
169  166  -167  0
-172  -169  170  0
175  172  -173  0
-181  178  179  0
-184  -181  182  0
-187  -184  185  0
190  187  188  0
-193  190  191  0
196  -193  -194  0
-199  196  -197  0
-202  -199  -200  0
-205  -202  -203  0
-208  205  206  0
-211  -208  -209  0
214  -211  212  0
-217  214  215  0
220  -217  -218  0
223  220  -221  0
-226  223  224  0
229  -226  227  0
232  -229  -230  0
235  -232  -233  0
-238  -235  -236  0
241  -238  239  0
244  -241  -242  0
-247  244  245  0
250  -247  248  0
253  -250  -251  0
-256  253  -254  0
259  256  257  0
262  259  -260  0
-265  262  -263  0
-268  -265  266  0
-271  -268  269  0
274  -271  272  0
-277  274  -275  0
-280  -277  278  0
-283  -280  -281  0
-286  283  -284  0
289  -286  -287  0
292  -289  -290  0
-295  -292  -293  0
-301  -298  -299  0
-304  301  302  0
-307  -304  305  0
-310  -307  308  0
316  313  -314  0
319  -316  317  0
322  -319  320  0
325  -322  323  0
-328  325  326  0
331  -328  329  0
-337  334  335  0
340  337  -338  0
343  340  341  0
346  -343  -344  0
349  -346  347  0
-352  349  -350  0
-355  -352  -353  0
-358  355  356  0
-361  -358  -359  0
-364  361  362  0
367  -364  365  0
370  -367  -368  0
-373  -370  -371  0
376  -373  374  0
379  -376  -377  0
-382  -379  -380  0
385  382  -383  0
388  -385  386  0
391  388  -389  0
394  391  -392  0
397  394  -395  0
-400  -397  -398  0
403  -400  -401  0
-406  -403  404  0
-409  -406  407  0
415  412  413  0
-418  -415  -416  0
-421  -418  -419  0
424  -421  422  0
427  424  -425  0
-430  -427  -428  0
-433  430  -431  0
439  436  437  0
-442  -439  440  0
445  -442  443  0
448  -445  -446  0
-451  448  449  0
-454  451  -452  0
457  454  -455  0
460  -457  458  0
-463  460  461  0
466  -463  464  0
-469  -466  -467  0
472  -469  470  0
-475  472  -473  0
478  -475  476  0
-481  478  -479  0
484  481  -482  0
487  484  485  0
490  -487  -488  0
493  490  -491  0
496  493  494  0
499  -496  497  0
-502  499  -500  0
-505  -502  -503  0
-508  -505  506  0
-511  -508  -509  0
-514  -511  -512  0
-520  -517  518  0
523  -520  521  0
-526  523  524  0
532  529  530  0
-535  532  533  0
-538  -535  536  0
541  538  539  0
544  -541  -542  0
-547  544  545  0
550  -547  -548  0
553  550  551  0
559  -556  557  0
-565  -562  -563  0
-568  -565  566  0
-571  -568  -569  0
574  -571  572  0
577  574  575  0
-580  -577  -578  0
583  580  581  0
586  -583  584  0
589  -586  587  0
592  589  -590  0
-595  592  -593  0
-598  -595  596  0
601  598  599  0
-604  -601  602  0
-607  -604  605  0
-610  -607  608  0
-613  -610  611  0
-619  616  617  0
622  619  620  0
-625  622  623  0
628  625  626  0
-631  628  629  0
-634  631  -632  0
637  634  -635  0
-640  637  638  0
646  -643  644  0
-649  -646  -647  0
-652  649  -650  0
655  652  653  0
-658  655  -656  0
5  -4  2  0
-5  -4  1  0
5  1  2  0
-5  2  3  0
-8  7  -5  0
-8  -4  5  0
8  5  6  0
11  -10  -8  0
-11  10  -7  0
11  -7  8  0
-14  13  11  0
14  -13  10  0
14  -10  -11  0
14  11  12  0
-17  -16  14  0
17  16  13  0
-17  13  14  0
17  -14  15  0
-20  19  -16  0
-20  -16  -17  0
-20  -17  18  0
-23  22  20  0
23  22  19  0
23  -19  -20  0
-23  20  -21  0
-26  25  -23  0
26  25  22  0
26  -22  23  0
-26  23  -24  0
-29  28  26  0
29  28  -25  0
29  -25  -26  0
-29  26  -27  0
-32  31  29  0
32  31  -28  0
32  -28  29  0
-32  -29  30  0
35  34  32  0
35  -34  31  0
35  -31  -32  0
35  32  -33  0
-38  -37  35  0
-38  37  34  0
-38  34  -35  0
38  -35  -36  0
41  -40  38  0
41  40  37  0
-41  -37  -38  0
41  -38  39  0
44  -43  41  0
44  43  40  0
44  -40  41  0
44  -41  42  0
47  46  44  0
-47  46  43  0
-47  -43  44  0
50  49  -47  0
50  -49  -46  0
50  -46  47  0
50  -47  48  0
53  52  50  0
53  52  49  0
53  -49  -50  0
-53  50  -51  0
56  -55  53  0
-56  -55  52  0
56  52  53  0
-56  53  -54  0
59  -58  56  0
-59  58  -55  0
-59  55  56  0
-59  -56  57  0
-62  -61  59  0
62  61  -58  0
62  -58  59  0
-62  -59  -60  0
65  64  62  0
-65  64  61  0
65  -61  62  0
-65  62  63  0
-68  67  65  0
68  67  -64  0
-68  -64  -65  0
68  65  -66  0
-71  70  68  0
-71  70  -67  0
-71  67  -68  0
71  68  69  0
-74  -73  71  0
74  -73  -70  0
74  70  71  0
74  71  72  0
-77  -76  -74  0
77  -76  73  0
77  -73  -74  0
77  74  75  0
80  -79  -77  0
-80  79  76  0
-80  76  -77  0
-80  -77  -78  0
-83  -82  -80  0
-83  -79  80  0
-83  -80  -81  0
-86  85  -83  0
-86  -85  82  0
86  -82  -83  0
-86  83  84  0
89  88  86  0
89  -88  85  0
-89  85  -86  0
-89  -86  87  0
-92  91  -89  0
92  91  -88  0
-95  94  -92  0
-95  94  91  0
95  91  -92  0
95  92  93  0
98  97  -95  0
-98  -97  -94  0
-98  -94  95  0
-98  -95  -96  0
101  -100  98  0
101  -100  -97  0
-101  -97  98  0
101  98  99  0
104  -103  -101  0
-104  103  -100  0
-104  -100  -101  0
107  106  -103  0
-107  103  -104  0
-107  104  105  0
110  -109  -107  0
-110  109  -106  0
110  -106  -107  0
110  107  108  0
113  112  -110  0
-113  -112  -109  0
-113  -109  110  0
113  110  111  0
116  -115  113  0
116  115  112  0
116  112  -113  0
-116  113  -114  0
119  -118  -116  0
119  -118  115  0
-119  -115  116  0
119  -116  117  0
122  -121  119  0
-122  -121  118  0
-122  118  -119  0
-122  -119  120  0
125  -124  122  0
125  -124  121  0
125  121  -122  0
-125  -122  123  0
128  127  125  0
-128  127  124  0
-128  124  -125  0
-128  125  126  0
131  -130  -128  0
-131  130  -127  0
131  -127  128  0
131  128  129  0
134  -133  -131  0
-134  133  130  0
-134  131  132  0
-137  136  134  0
-137  136  133  0
137  -133  -134  0
-137  -134  135  0
140  139  -137  0
140  139  -136  0
140  -136  -137  0
140  -137  138  0
-143  142  -140  0
-143  142  139  0
143  139  140  0
-143  140  -141  0
-146  -145  -143  0
-146  -145  -142  0
-146  142  143  0
146  143  -144  0
-149  148  146  0
-149  -148  145  0
-149  -145  -146  0
-149  146  -147  0
152  -151  149  0
-152  148  -149  0
-152  149  -150  0
155  -154  -152  0
-155  154  -151  0
-155  -151  -152  0
155  152  -153  0
158  -157  155  0
-158  -157  -154  0
158  154  -155  0
158  155  -156  0
161  160  157  0
161  -157  -158  0
-161  158  159  0
-164  163  -161  0
164  -163  160  0
164  -160  -161  0
-164  -161  -162  0
167  166  -164  0
167  -166  -163  0
167  163  164  0
167  -164  165  0
170  -169  -167  0
170  169  166  0
170  -166  167  0
-170  167  168  0
173  -172  -170  0
173  -172  -169  0
173  169  170  0
173  -170  171  0
-176  175  -173  0
176  175  -172  0
176  172  173  0
176  -173  174  0
179  178  -176  0
-179  -178  -175  0
179  175  176  0
-179  -176  -177  0
182  -178  179  0
182  -179  180  0
-185  184  -182  0
185  -184  -181  0
185  181  182  0
-185  -182  183  0
-188  -187  -185  0
188  -187  -184  0
-188  184  185  0
-188  -185  186  0
191  -190  -188  0
191  -190  -187  0
-191  -187  188  0
191  -188  189  0
-194  -193  -191  0
-194  -193  190  0
-194  190  -191  0
-194  -191  192  0
-197  -196  -193  0
197  -194  -195  0
-200  199  -197  0
200  -199  196  0
200  196  -197  0
200  -197  198  0
-203  -202  200  0
203  -202  199  0
-203  199  200  0
203  200  201  0
206  -205  -202  0
-206  202  203  0
206  203  204  0
209  -208  206  0
209  -208  -205  0
209  206  -207  0
212  211  -209  0
212  211  208  0
-212  208  -209  0
212  209  210  0
-215  214  212  0
215  214  211  0
215  211  212  0
-215  212  213  0
218  217  -215  0
-218  -217  -214  0
-218  214  -215  0
-218  -215  -216  0
-221  -220  -218  0
221  220  -217  0
-221  -217  218  0
221  218  -219  0
224  -223  221  0
224  223  -220  0
-224  -220  221  0
-224  221  222  0
-227  226  224  0
227  226  -223  0
227  223  -224  0
-227  224  225  0
-230  -229  -227  0
-230  229  226  0
230  226  -227  0
230  227  -228  0
-233  -232  230  0
233  -232  -229  0
233  -229  230  0
-233  -230  231  0
-236  -235  -233  0
236  235  232  0
-236  -232  -233  0
236  -233  -234  0
-239  238  -236  0
-239  -238  -235  0
239  -235  -236  0
-239  -236  -237  0
-242  241  -239  0
242  241  -238  0
-242  -238  -239  0
-242  239  240  0
-245  -244  -242  0
-245  -244  241  0
245  -241  242  0
-245  -242  -243  0
248  247  245  0
-248  -247  -244  0
-248  244  245  0
248  245  246  0
-251  250  248  0
-251  -250  247  0
251  247  -248  0
251  -248  -249  0
254  253  -251  0
254  253  -250  0
-254  250  251  0
254  -251  -252  0
257  256  -254  0
-257  -256  253  0
-257  -253  254  0
257  -254  -255  0
260  259  -257  0
-260  259  -256  0
-260  256  -257  0
260  -257  -258  0
-263  262  260  0
-263  -262  -259  0
-263  -259  -260  0
263  -260  -261  0
266  265  263  0
266  265  -262  0
-266  262  263  0
-266  -263  264  0
-269  268  -266  0
-269  268  265  0
-269  -265  -266  0
-269  -266  -267  0
-272  -271  -269  0
272  271  268  0
272  268  269  0
272  -269  270  0
-275  -274  272  0
-275  274  271  0
-275  -271  -272  0
-275  -272  -273  0
278  277  -275  0
-278  -277  274  0
-278  -274  -275  0
278  -275  276  0
-281  280  -278  0
-281  280  277  0
281  -277  278  0
-281  278  279  0
-284  -283  281  0
284  -283  280  0
-284  -280  281  0
284  -281  282  0
287  286  284  0
287  286  283  0
-287  284  -285  0
-290  -289  287  0
-290  289  286  0
290  286  -287  0
290  287  -288  0
-293  292  -290  0
-293  292  289  0
-293  289  290  0
293  290  -291  0
-296  -295  -293  0
296  -295  292  0
296  -292  -293  0
-296  -293  294  0
299  -298  -296  0
-299  298  -295  0
299  -295  296  0
-299  -296  -297  0
-302  301  -299  0
-302  -301  298  0
302  298  299  0
305  -304  302  0
-305  304  -301  0
-305  -301  302  0
305  -302  303  0
-308  307  305  0
-308  307  -304  0
-308  304  -305  0
-308  305  -306  0
311  -310  -308  0
311  -310  307  0
-311  307  308  0
-311  -308  309  0
-314  313  -311  0
-314  -313  -310  0
-314  -310  311  0
-314  311  312  0
317  316  314  0
-317  316  -313  0
317  313  -314  0
317  -314  -315  0
320  -319  -317  0
-320  316  317  0
-320  -317  -318  0
323  322  -320  0
323  -322  -319  0
323  319  320  0
-323  320  321  0
-326  -325  -323  0
326  325  -322  0
-326  322  323  0
-326  323  -324  0
329  -328  -326  0
329  328  325  0
329  -325  -326  0
-329  -326  -327  0
-332  331  -329  0
332  -331  328  0
-332  -328  -329  0
332  329  330  0
335  -334  331  0
335  -331  332  0
335  332  333  0
-338  337  -335  0
338  -337  334  0
338  334  -335  0
-338  -335  336  0
-341  340  -338  0
-341  340  -337  0
-341  337  -338  0
341  -338  339  0
344  343  -341  0
344  343  340  0
-344  -340  341  0
-344  -341  -342  0
-347  -346  -344  0
347  346  343  0
347  -343  -344  0
350  -349  -347  0
-350  349  346  0
350  -346  -347  0
350  -347  -348  0
353  -352  -350  0
-353  -352  -349  0
-353  -349  350  0
-353  -350  351  0
-356  355  -353  0
-356  -355  -352  0
356  352  -353  0
-356  353  354  0
-359  -358  -356  0
359  358  -355  0
359  -355  -356  0
359  -356  -357  0
362  361  -359  0
362  -361  358  0
362  -358  -359  0
-362  -359  360  0
365  -364  362  0
-365  364  361  0
365  -361  362  0
-365  -362  -363  0
368  -367  -365  0
-368  -367  364  0
-368  -364  365  0
368  365  -366  0
-371  370  368  0
-371  -370  -367  0
-371  -367  -368  0
-371  -368  -369  0
-374  -373  -371  0
374  -370  -371  0
-374  -371  -372  0
-377  -376  374  0
-377  -376  -373  0
377  -373  -374  0
-377  374  375  0
-380  -379  377  0
380  -379  -376  0
-380  376  377  0
-380  377  -378  0
383  382  -380  0
383  -382  -379  0
383  -379  380  0
383  -380  -381  0
386  -385  383  0
-386  -385  -382  0
386  382  -383  0
-386  383  384  0
389  388  386  0
-389  -388  -385  0
389  385  -386  0
389  386  -387  0
-392  -391  -389  0
-392  -391  -388  0
392  -388  -389  0
392  389  390  0
-395  -394  392  0
-395  394  391  0
-395  391  -392  0
-395  392  393  0
-398  397  -395  0
398  -397  394  0
398  -394  -395  0
-398  -395  396  0
401  -400  398  0
401  400  397  0
401  397  -398  0
-401  398  -399  0
404  403  -400  0
404  400  -401  0
-404  -401  -402  0
407  -406  -404  0
-407  406  403  0
407  -403  -404  0
407  -404  405  0
410  -409  407  0
-410  -409  -406  0
410  -406  407  0
-410  407  -408  0
-413  412  -409  0
413  -409  -410  0
413  410  -411  0
-416  -415  413  0
416  -415  -412  0
-416  412  413  0
416  -413  -414  0
-419  -418  -415  0
419  -415  -416  0
-419  416  -417  0
422  -421  419  0
-422  421  -418  0
422  418  -419  0
-422  -419  -420  0
425  424  -422  0
-425  424  421  0
-425  421  -422  0
425  422  423  0
428  427  425  0
428  427  -424  0
428  424  425  0
428  -425  426  0
-431  -430  -428  0
-431  430  -427  0
431  427  428  0
431  428  429  0
434  433  431  0
434  -433  -430  0
434  430  -431  0
434  431  432  0
437  436  -434  0
-437  436  433  0
-437  433  434  0
437  -434  -435  0
-440  -439  -437  0
440  -439  -436  0
-440  436  -437  0
440  -437  -438  0
-443  442  -440  0
443  442  439  0
443  439  440  0
443  440  441  0
446  445  443  0
446  -445  -442  0
446  -442  443  0
446  -443  444  0
449  -448  446  0
-449  -448  -445  0
449  -445  -446  0
452  451  449  0
452  451  -448  0
452  448  449  0
-452  449  450  0
455  454  -452  0
-455  -454  451  0
-455  -451  452  0
-458  457  -455  0
-458  457  454  0
458  -455  456  0
-461  -460  458  0
-461  -460  457  0
-461  -457  458  0
-461  458  459  0
464  463  -461  0
464  -463  -460  0
464  461  462  0
-467  -466  -464  0
467  -466  463  0
-467  -463  464  0
-467  -464  465  0
470  -469  -467  0
-470  -469  466  0
-470  466  467  0
-470  467  468  0
473  472  -470  0
-473  472  -469  0
-473  469  -470  0
-473  470  471  0
476  -475  473  0
476  475  -472  0
-476  -472  473  0
-476  -473  -474  0
479  -478  476  0
-479  478  -475  0
-479  475  476  0
479  -476  477  0
482  481  479  0
-482  -481  -478  0
482  478  -479  0
482  -479  -480  0
485  -484  -482  0
485  -484  481  0
485  -481  -482  0
-485  -482  483  0
488  487  485  0
-488  -487  -484  0
-488  484  -485  0
488  485  486  0
-491  490  488  0
-491  490  -487  0
-491  487  -488  0
-491  488  -489  0
494  493  -491  0
494  -493  490  0
-494  490  -491  0
-494  -491  -492  0
-497  -496  494  0
497  -496  493  0
-497  493  -494  0
-497  -494  -495  0
-500  -499  -497  0
500  -499  -496  0
-500  496  -497  0
500  497  -498  0
-503  502  -500  0
-503  502  499  0
503  -500  -501  0
506  -505  -503  0
-506  505  502  0
-506  503  504  0
509  -508  -506  0
509  508  -505  0
509  505  506  0
509  506  507  0
-512  -508  509  0
512  -509  -510  0
-515  -514  512  0
515  -514  511  0
-515  511  -512  0
515  512  513  0
518  517  515  0
518  517  -514  0
518  514  -515  0
-518  515  -516  0
-521  520  518  0
521  520  -517  0
521  517  518  0
-521  -518  519  0
-524  -523  521  0
524  -523  520  0
524  520  -521  0
524  521  522  0
-527  -526  524  0
-527  -526  523  0
527  523  524  0
527  524  -525  0
530  529  527  0
-530  529  -526  0
-530  -526  527  0
530  -527  -528  0
533  532  530  0
-533  532  529  0
-533  529  530  0
533  -530  531  0
536  535  -533  0
536  -535  -532  0
-536  -532  533  0
-536  -533  534  0
539  538  536  0
539  538  535  0
-539  -535  -536  0
539  536  537  0
-542  541  539  0
542  -541  -538  0
542  -538  -539  0
542  539  -540  0
-545  -544  -542  0
545  -544  541  0
545  -542  -543  0
-548  547  545  0
548  547  544  0
-548  544  -545  0
-548  -545  -546  0
-551  550  -548  0
551  550  547  0
-551  -547  -548  0
551  -548  -549  0
-554  553  -551  0
554  553  -550  0
-554  550  -551  0
-554  -551  -552  0
557  556  -554  0
557  556  553  0
557  -553  -554  0
557  -554  -555  0
-560  559  557  0
560  -559  556  0
560  -556  557  0
560  -557  558  0
-563  562  560  0
563  -562  -559  0
-563  -559  -560  0
-563  560  -561  0
566  -565  563  0
-566  565  -562  0
-566  562  563  0
566  -563  -564  0
569  -568  566  0
-569  568  565  0
-569  -565  -566  0
569  566  567  0
572  571  -569  0
-572  -571  -568  0
572  568  -569  0
572  569  570  0
-575  574  -572  0
-575  571  -572  0
575  572  573  0
-578  -577  -575  0
-578  577  -574  0
578  574  575  0
581  -580  -578  0
581  -580  577  0
581  577  578  0
581  578  579  0
-584  583  581  0
-584  -583  580  0
-584  580  581  0
584  -581  -582  0
-587  -586  -584  0
587  -586  583  0
587  -583  584  0
587  -584  585  0
-590  -589  -587  0
590  -589  586  0
590  -586  587  0
-590  587  588  0
-593  592  590  0
-593  -592  -589  0
593  589  590  0
593  590  -591  0
-596  -595  593  0
-596  595  592  0
-596  -592  593  0
596  -593  594  0
-599  -598  -596  0
-599  598  595  0
599  595  -596  0
599  596  597  0
602  -601  -599  0
-602  -601  598  0
602  -598  -599  0
-602  -599  600  0
-605  -604  -602  0
-605  604  -601  0
605  -601  602  0
-605  -602  603  0
-608  607  -605  0
-608  -607  604  0
608  604  605  0
608  605  -606  0
-611  -610  608  0
611  -610  607  0
-611  -607  -608  0
611  -608  -609  0
-614  -613  -611  0
614  -610  -611  0
-614  -611  612  0
617  -616  614  0
-617  616  613  0
617  613  614  0
-617  -614  615  0
-620  -619  -617  0
-620  -619  -616  0
620  616  617  0
620  -617  -618  0
-623  -622  620  0
623  622  -619  0
-623  -619  -620  0
-623  620  621  0
-626  -625  -623  0
-626  -625  622  0
-626  622  623  0
626  623  624  0
-629  628  -626  0
-629  628  625  0
-629  -625  -626  0
629  626  -627  0
-632  631  -629  0
632  631  628  0
-632  628  629  0
632  629  -630  0
-635  -634  632  0
635  -634  631  0
635  -631  632  0
635  632  633  0
-638  637  -635  0
638  -637  634  0
638  -634  -635  0
638  -635  -636  0
-641  -640  -638  0
641  640  637  0
641  637  638  0
641  -638  -639  0
-644  643  641  0
-644  643  640  0
644  640  641  0
644  -641  642  0
647  646  -644  0
-647  646  -643  0
-647  643  -644  0
-647  644  645  0
-650  649  -647  0
-650  649  646  0
-650  -646  647  0
-650  647  -648  0
653  -652  650  0
653  -652  649  0
-653  -649  650  0
653  650  651  0
656  655  653  0
656  655  652  0
-656  -652  653  0
659  -658  -656  0
659  658  655  0
659  655  656  0
-659  -656  657  0
6  -5  -3  0
-6  5  -2  0
6  2  -3  0
9  8  -6  0
-9  -8  5  0
9  -5  -6  0
12  -11  -9  0
12  -11  -8  0
-12  8  9  0
-15  -14  12  0
15  -14  -11  0
15  11  -12  0
18  -17  -15  0
18  -17  14  0
18  14  -15  0
-21  20  -18  0
21  -20  -17  0
21  -17  18  0
24  23  21  0
-24  23  -20  0
24  -20  21  0
27  26  -24  0
-27  -26  -23  0
-27  23  24  0
30  -29  26  0
30  26  -27  0
33  32  -30  0
-33  -32  -29  0
33  29  30  0
36  -35  33  0
-36  35  32  0
-36  32  33  0
39  -38  36  0
39  38  35  0
39  35  -36  0
42  -41  -39  0
-42  41  38  0
42  38  39  0
-45  44  42  0
45  44  -41  0
45  41  42  0
48  47  -45  0
-48  -47  -44  0
-51  -50  48  0
51  -50  47  0
-51  -47  48  0
-54  -53  -51  0
54  53  50  0
54  -50  51  0
-57  56  54  0
57  56  -53  0
57  -53  -54  0
-60  -59  -56  0
-60  -56  -57  0
63  -62  -59  0
-63  59  -60  0
-66  65  -63  0
-66  65  -62  0
-66  -62  -63  0
-69  68  -66  0
-69  68  65  0
-69  65  66  0
72  -71  -69  0
-72  -68  -69  0
-75  74  -72  0
-75  74  -71  0
75  -71  -72  0
78  77  -75  0
78  77  74  0
78  -74  75  0
-81  -80  -78  0
-81  -80  -77  0
-81  -77  -78  0
84  83  -81  0
84  83  -80  0
-84  80  81  0
-87  86  -84  0
-87  -86  -83  0
-87  83  -84  0
-90  89  87  0
-90  89  86  0
-90  86  -87  0
93  92  90  0
-93  92  -89  0
93  -89  90  0
-96  95  -93  0
96  95  92  0
96  92  -93  0
99  -98  -96  0
-99  -98  -95  0
99  95  -96  0
-102  101  99  0
-102  -101  -98  0
102  98  99  0
-105  104  102  0
-105  104  -101  0
105  101  -102  0
108  -107  105  0
-108  -107  104  0
-108  104  -105  0
-111  -110  108  0
111  110  107  0
111  107  -108  0
-114  -113  111  0
-114  -113  -110  0
114  110  -111  0
117  116  114  0
117  -113  114  0
120  119  117  0
120  -119  116  0
120  116  -117  0
123  -122  -120  0
-123  -122  -119  0
-123  -119  120  0
126  125  -122  0
126  -122  -123  0
129  -128  -126  0
129  -128  125  0
129  -125  -126  0
132  131  -129  0
-132  131  -128  0
-135  -134  -132  0
135  134  -131  0
-135  -131  -132  0
-138  -137  -135  0
-138  137  -134  0
-138  134  135  0
-141  140  138  0
141  -140  -137  0
-141  -137  -138  0
144  143  -140  0
-144  -140  141  0
-147  146  -144  0
147  -146  143  0
-147  143  -144  0
-150  149  147  0
150  149  146  0
-150  -146  147  0
-153  -152  150  0
153  152  149  0
153  -149  150  0
-156  155  -153  0
-156  155  -152  0
-156  -152  -153  0
159  158  156  0
-159  -158  -155  0
-159  155  -156  0
162  -161  -159  0
162  -161  -158  0
-162  158  159  0
165  -164  -161  0
-165  -161  162  0
-168  -167  -164  0
-168  164  165  0
-171  170  168  0
171  -170  -167  0
-171  167  168  0
-174  -173  -171  0
-174  -173  -170  0
-174  -170  171  0
177  -176  174  0
177  -176  -173  0
-177  173  174  0
-180  179  -177  0
180  179  176  0
180  -176  177  0
-183  182  -180  0
183  -182  179  0
-183  179  -180  0
-186  185  183  0
186  -185  182  0
-186  182  183  0
189  -188  -186  0
-189  188  -185  0
189  -185  186  0
-192  191  -189  0
192  191  188  0
192  -188  -189  0
195  194  -192  0
-195  -194  -191  0
-195  -191  192  0
198  197  195  0
198  -197  -194  0
198  194  -195  0
-201  200  -198  0
201  -200  197  0
-201  197  -198  0
-204  -203  -201  0
204  -203  -200  0
204  -200  201  0
-207  -206  204  0
207  206  -203  0
-207  203  -204  0
-210  209  207  0
-210  209  -206  0
210  206  207  0
213  -212  -210  0
213  -212  209  0
-213  209  -210  0
-216  215  -213  0
-216  -212  -213  0
-219  218  216  0
219  218  215  0
219  -215  216  0
-222  -221  219  0
222  -221  -218  0
-222  -218  219  0
225  224  -221  0
225  -221  222  0
-228  -227  225  0
-228  227  224  0
228  -224  -225  0
-231  230  -228  0
231  227  228  0
-234  -233  -231  0
234  233  -230  0
-234  -230  231  0
-237  236  234  0
237  -236  233  0
-237  -233  234  0
240  -239  237  0
-240  -239  -236  0
240  -236  237  0
243  242  -240  0
-243  242  239  0
-243  -239  240  0
-246  245  243  0
-246  -245  242  0
246  -242  243  0
249  -248  246  0
249  248  245  0
249  -245  -246  0
252  251  -249  0
252  -251  248  0
-252  -248  249  0
-255  -254  252  0
255  254  251  0
-255  -251  252  0
-258  -257  255  0
-258  257  254  0
258  -254  255  0
-261  260  -258  0
261  260  257  0
-261  257  -258  0
-264  -263  261  0
264  -263  260  0
264  -260  261  0
-267  -266  -264  0
-267  -266  263  0
-267  263  -264  0
-270  269  -267  0
270  -266  -267  0
273  -272  -270  0
-273  -272  269  0
273  -269  270  0
-276  -275  -273  0
276  -275  -272  0
-276  272  273  0
279  -278  276  0
-279  -278  275  0
-279  275  -276  0
282  -281  -279  0
-282  -281  -278  0
282  -278  279  0
285  284  281  0
-285  -281  -282  0
-288  287  285  0
288  287  284  0
-288  284  -285  0
-291  -290  -288  0
-291  -290  287  0
-291  -287  288  0
294  293  -291  0
294  -293  290  0
-294  -290  291  0
297  -296  294  0
-297  296  293  0
297  -293  294  0
-300  299  -297  0
300  -299  296  0
300  296  297  0
303  302  -300  0
303  302  299  0
-303  299  -300  0
-306  -305  302  0
306  -302  303  0
309  308  306  0
309  -308  -305  0
-309  -305  -306  0
312  311  309  0
312  -311  308  0
312  308  -309  0
315  -314  -312  0
-315  -314  311  0
-315  -311  312  0
318  317  315  0
318  -317  -314  0
318  314  315  0
321  -320  -318  0
321  320  317  0
-321  -317  -318  0
324  -323  -321  0
324  -323  -320  0
324  -320  -321  0
-327  326  -324  0
-327  -326  323  0
-327  323  -324  0
-330  -329  327  0
330  329  -326  0
330  326  327  0
-333  332  329  0
-333  -329  -330  0
-336  335  -333  0
-336  335  -332  0
-336  332  -333  0
-339  -338  336  0
339  -338  -335  0
-339  -335  336  0
342  -341  339  0
-342  -341  338  0
342  338  339  0
-345  344  -342  0
-345  -344  341  0
345  341  -342  0
348  347  -344  0
348  -344  345  0
-351  -350  -347  0
351  -347  348  0
354  353  351  0
-354  -350  351  0
-357  -356  -354  0
-357  356  -353  0
360  359  357  0
360  -359  -356  0
-360  356  357  0
-363  -362  -360  0
-363  359  360  0
366  -365  363  0
366  -365  -362  0
-366  362  -363  0
-369  368  -366  0
369  365  -366  0
372  371  -369  0
-372  -371  -368  0
372  -368  -369  0
375  374  -372  0
375  -374  371  0
375  -371  372  0
-378  -377  -375  0
-378  -377  -374  0
378  374  -375  0
-381  380  -378  0
381  380  -377  0
-381  -377  -378  0
384  -383  381  0
384  -383  380  0
-384  380  -381  0
387  386  384  0
387  386  -383  0
387  -383  -384  0
-390  -389  387  0
-390  386  -387  0
393  392  390  0
393  -392  389  0
-393  -389  -390  0
-396  -395  393  0
-396  395  392  0
-396  -392  393  0
-399  398  -396  0
399  -398  395  0
399  395  396  0
-402  401  399  0
-402  401  -398  0
402  398  399  0
-405  -404  -402  0
405  -404  -401  0
405  401  402  0
408  -407  405  0
408  407  -404  0
408  -404  -405  0
411  -410  408  0
411  410  -407  0
411  407  408  0
414  -413  -411  0
-414  -413  410  0
414  -410  -411  0
-417  416  413  0
-417  413  -414  0
420  -419  -417  0
420  419  416  0
420  -416  -417  0
423  -422  420  0
-423  -422  419  0
423  -419  420  0
-426  425  -423  0
-426  -425  422  0
-426  -422  -423  0
429  428  426  0
-429  428  425  0
429  -425  426  0
432  -431  429  0
432  431  -428  0
435  -434  432  0
-435  -434  -431  0
-435  -431  432  0
-438  437  -435  0
438  -437  434  0
-438  434  435  0
441  -440  -438  0
-441  -437  -438  0
444  -443  -441  0
444  443  440  0
444  440  -441  0
447  446  444  0
447  -443  -444  0
-450  449  -447  0
-450  -449  446  0
-450  446  -447  0
-453  452  -450  0
-453  -452  449  0
-453  449  -450  0
-456  -455  -453  0
456  455  -452  0
-456  -452  -453  0
459  -458  -456  0
-459  -458  -455  0
-459  -455  456  0
-462  -461  459  0
-462  -461  458  0
-462  458  -459  0
465  -464  -462  0
465  464  461  0
465  461  -462  0
468  467  465  0
-468  -467  -464  0
-468  464  465  0
-471  470  -468  0
471  -470  -467  0
471  467  468  0
-474  -473  470  0
-474  470  -471  0
477  -476  -474  0
477  476  -473  0
477  -473  -474  0
480  479  -477  0
480  -479  -476  0
-480  -476  477  0
483  482  -480  0
-483  -482  -479  0
-483  -479  -480  0
486  -485  -483  0
-486  -485  -482  0
486  482  483  0
-489  488  486  0
-489  -488  -485  0
-489  -485  -486  0
492  -491  -489  0
-492  491  488  0
492  -488  489  0
-495  -494  -492  0
495  494  491  0
495  491  492  0
-498  -497  495  0
-498  497  494  0
-498  -494  -495  0
-501  -500  498  0
501  -500  -497  0
-501  497  -498  0
-504  503  -501  0
-504  -503  500  0
-504  -500  501  0
507  506  -504  0
507  506  503  0
-507  503  -504  0
-510  509  -507  0
-510  -509  506  0
-510  -506  -507  0
513  512  -509  0
513  -509  -510  0
516  -515  -513  0
-516  -515  512  0
516  -512  -513  0
-519  -518  -516  0
519  518  515  0
519  515  516  0
522  521  519  0
522  -521  -518  0
522  518  519  0
-525  524  522  0
-525  524  -521  0
-525  521  -522  0
528  -527  -525  0
-528  527  -524  0
-528  -524  -525  0
-531  530  528  0
531  530  -527  0
531  527  -528  0
534  -533  -531  0
534  -533  530  0
534  530  531  0
537  -536  -533  0
-537  -533  534  0
-540  539  537  0
540  -539  -536  0
540  536  537  0
543  -542  540  0
-543  542  539  0
-543  539  540  0
-546  -545  -543  0
546  -545  542  0
-546  542  -543  0
549  548  546  0
549  -548  -545  0
549  -545  546  0
552  551  549  0
552  551  -548  0
-552  548  549  0
-555  -554  552  0
-555  -554  551  0
-555  551  552  0
-558  -557  -555  0
558  -557  554  0
558  -554  -555  0
561  560  -558  0
561  560  -557  0
-561  557  558  0
564  563  -561  0
564  563  -560  0
-564  560  -561  0
567  566  564  0
567  566  563  0
567  -563  564  0
-570  569  567  0
570  -569  566  0
570  566  -567  0
573  572  -570  0
-573  -572  569  0
-573  -569  570  0
576  575  -573  0
576  575  572  0
576  572  573  0
-579  578  -576  0
-579  578  -575  0
-579  -575  576  0
-582  581  -579  0
582  581  578  0
-582  -578  -579  0
585  584  -582  0
585  584  581  0
-585  581  582  0
588  -587  585  0
588  587  584  0
-588  -584  -585  0
591  590  588  0
-591  590  587  0
-591  587  588  0
594  593  -591  0
-594  593  590  0
597  -596  594  0
-597  -596  -593  0
-597  -593  594  0
600  599  -597  0
600  -599  -596  0
600  -596  597  0
603  602  -600  0
-603  602  599  0
603  599  600  0
606  605  603  0
606  605  -602  0
606  602  -603  0
-609  -608  606  0
609  -608  -605  0
-609  605  -606  0
612  611  609  0
-612  611  608  0
612  608  609  0
615  -614  612  0
615  614  -611  0
615  -611  612  0
618  617  -615  0
618  617  -614  0
-618  -614  615  0
621  620  -618  0
-621  620  617  0
-624  623  621  0
624  620  -621  0
-627  626  -624  0
627  626  623  0
-627  623  624  0
-630  -629  627  0
-630  629  626  0
-630  -626  -627  0
-633  -632  -630  0
633  -632  629  0
-633  629  -630  0
-636  -635  633  0
636  635  -632  0
636  -632  -633  0
639  638  636  0
639  -638  635  0
639  -635  636  0
-642  -641  639  0
642  -641  638  0
642  -638  639  0
-645  -644  -642  0
645  -644  641  0
645  -641  -642  0
-648  -647  -645  0
648  -647  644  0
651  -650  648  0
-651  -650  -647  0
-651  -647  648  0
-654  -653  -651  0
-654  653  650  0
654  -650  651  0
657  -656  654  0
-657  656  -653  0
-657  -653  -654  0
660  -659  -657  0
660  659  656  0
660  -656  -657  0
